c WARNING: for repeatability, setting FPU to use double precision
d VARIABLES            225576       
d CONSTRAINTS          983963       
c ============================[ Problem Statistics ]=============================
c |                                                                             |
c |  Number of variables:        225576                                         |
c |  Number of clauses:          983963                                         |
c |  Parse time:                   0.16 s                                       |
c |                                                                             |
c ============================[ Search Statistics ]==============================
c | Conflicts |          ORIGINAL         |          LEARNT          | Progress |
c |           |    Vars  Clauses Literals |    Limit  Clauses Lit/Cl |          |
c ===============================================================================
c |       100 |  186899   884333  2144089 |   324255       99     82 | 17.146 % |
c |       250 |  186899   884333  2144089 |   356680      249     59 | 17.146 % |
c |       475 |  186879   884008  2143309 |   392349      459     45 | 17.155 % |
c |       812 |  186879   884008  2143309 |   431583      796     84 | 17.155 % |
c |      1318 |  186879   884008  2143309 |   474742     1302     91 | 17.155 % |
c |      2077 |  186879   884008  2143309 |   522216     2061     85 | 17.155 % |
c |      3216 |  186879   884008  2143309 |   574438     3200    102 | 17.155 % |
c |      4924 |  186856   883894  2143035 |   631882     4907    149 | 17.165 % |
c |      7486 |  186856   883894  2143035 |   695070     7469    166 | 17.165 % |
c |     11330 |  186856   883894  2143035 |   764577    11313    155 | 17.165 % |
c |     17096 |  186831   883786  2142775 |   841035    17076    174 | 17.176 % |
c |     25745 |  186831   883772  2142741 |   925138    25725    153 | 17.176 % |
c |     38719 |  186831   883772  2142741 |  1017652    38699    148 | 17.176 % |
c |     58180 |  186831   883772  2142741 |  1119417    58160    151 | 17.176 % |
c |     87372 |  186831   883772  2142741 |  1231359    87352    160 | 17.176 % |
c |    131161 |  186831   883772  2142741 |  1354495   131141    147 | 17.176 % |
c |    196845 |  186831   883772  2142741 |  1489944   196825    134 | 17.176 % |
c |    295371 |  186831   883772  2142741 |  1638939   295351    129 | 17.176 % |
c |    443160 |  186831   883772  2142741 |  1802833   443140    123 | 17.176 % |
c |    664843 |  186831   883772  2142741 |  1983116   664823    116 | 17.176 % |
c |    997368 |  186831   883772  2142741 |  2181428   997348    121 | 17.176 % |
c |   1496156 |  186831   883772  2142741 |  2399571  1496136    128 | 17.176 % |
c ===============================================================================
c restarts              : 4094
c conflicts             : 2166233        (1207 /sec)
c decisions             : 5477027        (0.00 % random) (3053 /sec)
c propagations          : 5818953543     (3243209 /sec)
c conflict literals     : 295955862      (33.26 % deleted)
d RESTARTS             4094
d FAILURES             2166233      
d NODES                5477027      
d BACKTRACKS           5477027      
d PROPAGATIONS         5818953543   
d NOGOODSIZE           136.62 
d MEMORY               1648.00 
d TIME                 1794.2 

s UNKNOWN
